c ren 1 -> 1
c ren 2 -> 2
c ren 3 -> 3
c ren 4 -> 4
c ren 5 -> 5
c ren 6 -> 6
c ren 7 -> 7
c ren 8 -> 8
c ren 9 -> 9
c ren 10 -> 10
c ren 11 -> 11
c ren 12 -> 12
c ren 13 -> 13
c ren 14 -> 14
c ren 15 -> 15
c ren 16 -> 16
c ren 17 -> 17
c ren 18 -> 18
c ren 19 -> 19
c ren 20 -> 20
c ren 21 -> 21
c ren 22 -> 22
c ren 23 -> 23
c ren 24 -> 24
c ren 25 -> 25
c ren 26 -> 26
c ren 27 -> 27
c ren 28 -> 28
c ren 29 -> 29
c ren 30 -> 30
c ren 31 -> 31
c ren 32 -> 32
c ren 54 -> 33
c ren 58 -> 34
c ren 84 -> 35
c ren 88 -> 36
c ren 118 -> 37
c ren 139 -> 38
c ren 157 -> 39
c ren 162 -> 40
c ren 166 -> 41
c ren 168 -> 42
c ren 169 -> 43
c ren 170 -> 44
c ren 171 -> 45
c ren 172 -> 46
c ren 173 -> 47
c ren 174 -> 48
c ren 175 -> 49
c ren 176 -> 50
c ren 177 -> 51
c ren 178 -> 52
c ren 179 -> 53
c ren 180 -> 54
c ren 181 -> 55
c ren 182 -> 56
c ren 183 -> 57
c ren 184 -> 58
c ren 185 -> 59
c ren 186 -> 60
c ren 187 -> 61
c ren 188 -> 62
c ren 189 -> 63
c ren 190 -> 64
c ren 191 -> 65
c ren 192 -> 66
c ren 193 -> 67
c ren 194 -> 68
c ren 195 -> 69
c ren 196 -> 70
c ren 197 -> 71
c ren 198 -> 72
c ren 199 -> 73
c ren 200 -> 74
c ren 201 -> 75
c ren 202 -> 76
c ren 203 -> 77
c ren 204 -> 78
c ren 205 -> 79
c ren 206 -> 80
c ren 207 -> 81
c ren 208 -> 82
c ren 209 -> 83
c ren 210 -> 84
c ren 211 -> 85
c ren 212 -> 86
c ren 213 -> 87
c ren 214 -> 88
c ren 215 -> 89
c ren 216 -> 90
c ren 217 -> 91
c ren 218 -> 92
c ren 219 -> 93
c ren 220 -> 94
c ren 221 -> 95
c ren 222 -> 96
c ren 223 -> 97
c ren 224 -> 98
c ren 225 -> 99
c ren 226 -> 100
c ren 227 -> 101
c ren 228 -> 102
c ren 267 -> 103
c ren 274 -> 104
c ren 303 -> 105
c ren 304 -> 106
c ren 305 -> 107
c ren 306 -> 108
c ren 307 -> 109
c ren 308 -> 110
c ren 309 -> 111
c ren 310 -> 112
c ren 311 -> 113
c ren 312 -> 114
c ren 313 -> 115
c ren 314 -> 116
c ren 315 -> 117
c ren 316 -> 118
c ren 317 -> 119
c ren 318 -> 120
c ren 319 -> 121
c ren 320 -> 122
c ren 321 -> 123
c ren 322 -> 124
c ren 323 -> 125
c ren 324 -> 126
c ren 325 -> 127
c ren 326 -> 128
c ren 327 -> 129
c ren 328 -> 130
c ren 329 -> 131
c ren 330 -> 132
c ren 331 -> 133
c ren 332 -> 134
c ren 333 -> 135
c ren 334 -> 136
c ren 335 -> 137
c ren 336 -> 138
c ren 337 -> 139
c ren 338 -> 140
c ren 339 -> 141
c ren 340 -> 142
c ren 341 -> 143
c ren 342 -> 144
c ren 343 -> 145
p cnf 145 512
a 1 2 3 4 5 6 7 8 9 10 11 12 13 14 15 16 17 18 19 20 21 22 23 24 25 26 27 28 29 30 31 32 61 62 63 64 65 66 67 68 69 70 71 72 73 74 75 76 77 78 79 80 81 82 83 84 85 86 87 88 89 90 91 92 93 94 95 96 97 98 99 100 101 102 0
d 42 61 62 0
d 43 65 66 0
d 44 63 64 0
d 45 73 74 0
d 46 79 80 81 82 83 84 85 86 87 88 0
d 47 79 80 81 82 83 84 85 86 87 88 0
d 48 77 78 0
d 49 67 68 0
d 50 71 72 0
d 51 75 76 0
d 52 69 70 0
d 53 89 90 91 92 93 94 95 96 97 98 99 100 101 102 0
d 54 89 90 91 92 93 94 95 96 97 98 99 100 101 102 0
d 55 89 90 91 92 93 94 95 96 97 98 99 100 101 102 0
d 56 89 90 91 92 93 94 95 96 97 98 99 100 101 102 0
d 57 89 90 91 92 93 94 95 96 97 98 99 100 101 102 0
d 58 89 90 91 92 93 94 95 96 97 98 99 100 101 102 0
d 59 89 90 91 92 93 94 95 96 97 98 99 100 101 102 0
d 60 89 90 91 92 93 94 95 96 97 98 99 100 101 102 0
e 33 34 35 36 37 38 39 40 41 103 104 105 106 107 108 109 110 111 112 113 114 115 116 117 118 119 120 121 122 123 124 125 126 127 128 129 130 131 132 133 134 135 136 137 138 139 140 141 142 143 144 145 0
9 10 -26 -104 0
-1 -4 18 19 20 -39 0
9 12 -26 -52 -104 0
11 -27 98 -143 0
10 -25 -26 -104 0
9 10 -11 12 25 26 -27 28 34 0
9 10 11 -28 -33 0
14 15 -16 29 30 31 -32 33 -34 35 -36 -37 -38 -39 41 0
-9 10 11 12 -25 26 27 28 34 0
-9 -11 -12 26 28 33 0
12 -25 -26 -52 97 -142 0
26 49 52 57 58 60 104 0
-9 10 -11 12 -25 26 -27 28 34 0
9 11 -26 -27 -52 -104 0
9 10 11 -12 25 26 27 -28 34 0
9 -25 -34 0
-1 -17 82 -127 0
2 3 -17 -20 37 -40 0
-11 25 26 27 33 0
-12 25 26 27 28 33 0
10 12 -25 -52 97 -142 0
9 10 -26 97 -142 0
-12 28 -34 0
-1 -2 -3 19 -39 0
9 -10 11 -12 25 -26 27 -28 34 0
-1 2 -3 4 -17 18 -19 20 37 0
-10 26 98 -143 0
1 2 4 -19 37 -40 0
9 -26 -27 -28 -33 0
-9 25 33 0
-1 -2 18 -39 0
10 -11 -25 27 -52 97 -142 0
-11 -12 25 26 28 33 0
-10 -11 -12 -27 28 49 57 58 60 104 0
11 -12 26 27 28 49 -97 -142 0
10 -26 -34 0
-10 49 52 -97 -142 0
-10 -11 -12 25 28 33 0
-11 27 98 -143 0
-10 11 -26 27 49 50 -98 -143 0
-9 25 57 58 60 104 0
9 -10 -11 -12 25 -26 -27 -28 34 0
12 -28 -34 0
-25 -26 -27 -28 -33 0
10 12 -25 -52 -104 0
9 -26 -28 -52 -104 0
9 -26 -28 -52 97 -142 0
11 -27 -34 0
9 10 11 -27 -52 -104 0
26 49 52 -97 -142 0
9 -49 97 -142 0
-10 11 -12 27 28 49 57 58 60 104 0
13 -29 -91 -136 0
34 -41 0
9 10 -11 -12 25 26 -27 -28 34 0
9 10 11 -27 -33 0
-13 -16 30 31 32 -34 -36 -37 40 0
-5 6 -7 -8 -21 22 -23 -24 36 0
9 10 12 -52 -104 0
10 11 -25 -27 -52 -104 0
10 -25 -28 -52 -104 0
9 11 -26 -28 -33 0
9 10 -27 -28 -33 0
-5 6 8 -21 22 24 43 -100 -145 0
7 -21 -22 -24 -35 0
7 -23 -36 0
5 6 7 8 -35 0
2 3 -17 -19 -40 0
3 -19 -41 0
7 8 -21 -22 -35 0
6 -21 -23 -24 -35 0
5 6 -22 -35 0
-8 21 22 23 24 35 0
6 -22 100 -145 0
-17 -18 -19 -20 37 -40 0
-5 -6 -7 -21 23 103 0
-5 -6 7 -8 -21 -22 23 -24 36 0
15 16 -30 33 35 -38 -39 -40 0
6 -22 -36 0
-5 -6 -8 23 24 35 0
-6 22 100 -145 0
5 6 8 21 22 24 43 -100 -145 0
5 -21 -36 0
15 -30 -32 33 35 -38 -39 -40 0
11 -25 -26 -27 -52 97 -142 0
-5 -6 -8 -21 -22 -24 43 -100 -145 0
-11 -25 -26 27 -52 -104 0
-5 21 -44 -103 0
5 -21 100 -145 0
-8 24 100 -145 0
5 6 7 -24 -35 0
-7 23 -36 0
3 4 -17 -18 39 0
-7 21 22 23 35 0
-6 22 -36 0
3 -17 -18 -19 -40 0
5 7 -22 -24 -35 0
-5 21 35 0
-9 -10 -11 -12 28 33 0
5 -6 7 -8 21 -22 23 -24 36 0
5 -6 -8 21 -22 -24 43 -100 -145 0
5 6 7 -23 -35 0
-5 -6 -7 23 35 0
5 -22 -23 -24 -35 0
5 -6 8 21 24 43 103 0
-5 21 100 -145 0
5 7 -22 -23 -35 0
6 -8 -23 -44 -103 0
-5 21 -36 0
5 6 -8 21 22 -24 43 -100 -145 0
-6 -7 -8 21 24 35 0
5 -21 -35 0
6 -23 -43 -44 -103 0
7 -22 -43 -44 -103 0
8 -24 -36 0
-9 -10 26 33 0
-9 10 -11 -12 -25 26 -27 -28 34 0
6 -23 -24 -44 -103 0
6 8 -21 -23 -35 0
-9 -11 26 27 33 0
7 -22 -24 -44 -103 0
-8 24 -36 0
5 6 7 -8 21 22 23 -24 36 0
5 -6 21 22 103 0
5 -6 8 21 -22 24 43 -100 -145 0
-13 15 16 31 32 -38 51 -96 -141 0
36 -41 0
-5 -6 -21 22 103 0
-6 -7 21 23 35 0
35 36 -39 -40 0
14 15 -31 33 35 -38 -39 -40 0
14 -15 16 29 30 -31 32 33 -34 35 -36 -37 -38 -39 41 0
1 3 4 -18 37 -40 0
-5 -7 22 23 35 0
5 8 -22 -23 -35 0
5 -6 -7 21 23 103 0
14 15 -32 33 35 -38 -39 -40 0
1 -2 -3 -4 17 -18 -19 -20 37 0
3 -19 -37 0
1 2 3 -19 -40 0
-9 -10 -11 12 -25 -26 -27 28 34 0
-9 -10 -11 -12 -25 -26 -27 -28 34 0
-2 -3 17 19 -39 0
4 -17 -18 -19 37 -40 0
-17 -18 -19 -20 39 0
-14 15 16 29 -30 31 32 33 -34 35 -36 -37 -38 -39 41 0
-2 -4 17 19 20 -39 0
2 -18 -37 0
1 3 4 -18 39 0
-5 -7 -8 22 24 35 0
-5 6 -7 8 -21 22 -23 24 36 0
1 -17 -40 0
1 -17 -41 0
1 -2 3 4 17 -18 19 20 37 0
37 -41 0
1 2 -3 -4 17 18 -19 -20 37 0
1 -17 -37 0
-1 -2 -3 -4 -17 -18 -19 -20 37 0
-13 14 15 16 30 31 32 33 -34 35 -36 -37 -38 -39 41 0
-13 -15 30 31 -34 -36 -37 40 0
3 -17 -18 -20 39 0
1 -17 -82 -127 0
-13 -14 -15 -16 -30 -31 -32 33 -34 35 -36 -37 -38 -39 41 0
2 4 -17 -19 39 0
2 -17 -18 -40 0
-4 20 -37 0
-11 -25 -26 27 -52 97 -142 0
1 2 3 -19 39 0
-3 19 -37 0
14 15 16 33 35 -38 -39 -40 0
1 2 -3 4 17 18 -19 20 37 0
-2 18 -37 0
-5 -6 8 -21 -22 24 43 -100 -145 0
-14 29 30 -34 -36 -37 40 0
-1 17 -39 0
1 3 -18 -20 37 -40 0
2 -18 -41 0
1 4 -18 -19 39 0
1 3 -18 -19 39 0
1 2 3 4 17 18 19 20 37 0
-2 17 18 -39 0
3 4 -17 -18 37 -40 0
-15 29 30 31 -34 -36 -37 40 0
-2 -3 -4 17 20 -39 0
1 2 3 -20 37 -40 0
1 2 3 4 37 -40 0
1 -18 -19 -20 39 0
1 -18 -19 -20 37 -40 0
-1 17 -82 -127 0
1 2 4 -19 39 0
4 -20 -37 0
-16 29 30 31 32 -34 -36 -37 40 0
10 -25 -26 97 -142 0
10 12 -25 -27 -33 0
1 3 -18 -19 -40 0
-3 -4 17 18 20 -39 0
1 -2 3 -4 17 -18 19 -20 37 0
3 -17 -18 -20 37 -40 0
1 3 -18 -20 39 0
1 4 -18 -19 37 -40 0
1 -17 39 0
-14 -15 -16 29 -30 -31 -32 33 -34 35 -36 -37 -38 -39 41 0
1 2 -19 -20 39 0
1 -2 -3 4 17 -18 -19 20 37 0
2 3 -17 -20 39 0
-13 -38 91 -136 0
1 2 3 4 39 0
-15 -16 29 -31 -32 -38 51 -96 -141 0
12 -25 -26 -27 -33 0
11 -25 -26 -28 -33 0
14 15 16 29 30 31 32 33 -34 35 -36 -37 -38 -39 41 0
-13 14 -15 -16 30 -31 -32 33 -34 35 -36 -37 -38 -39 41 0
-13 -14 15 -16 -30 31 -32 33 -34 35 -36 -37 -38 -39 41 0
15 -16 29 31 -32 -38 51 -96 -141 0
10 -11 26 -27 49 50 -98 -143 0
-11 27 -34 0
16 -30 -31 -32 -41 0
-10 -11 -26 -27 49 50 -98 -143 0
14 16 -31 -32 -41 0
-40 -46 -58 103 -105 0
-33 -36 -37 40 0
33 34 35 -39 -40 0
9 11 -26 -27 -33 0
-22 -23 -43 -44 -103 0
10 11 -25 -27 -52 97 -142 0
9 -10 -11 12 25 -26 -27 28 34 0
9 10 -28 -52 -104 0
9 11 12 -26 -33 0
-13 -14 -15 31 -34 -36 -37 40 0
13 -29 33 35 -39 -40 0
-40 47 -56 103 104 -105 0
-13 29 -38 0
13 -29 -41 0
6 7 -21 -24 -35 0
-40 -46 -55 -59 104 -105 0
-15 31 -89 -134 0
13 38 0
-29 38 0
-5 -6 22 35 0
-10 -12 25 27 28 33 0
10 -25 -28 -52 97 -142 0
-16 32 -41 0
9 -49 -104 0
-13 -14 -15 -16 32 -34 -36 -37 40 0
-13 -14 15 16 -30 31 32 33 -34 35 -36 -37 -38 -39 41 0
14 15 16 -32 -41 0
-15 31 96 -141 0
14 -94 -139 0
38 -91 -136 0
-10 25 26 33 0
-14 30 -41 0
-13 14 15 -16 30 31 -32 33 -34 35 -36 -37 -38 -39 41 0
-15 31 -41 0
16 -32 96 -141 0
-40 47 54 -59 104 -105 0
15 -93 -138 0
-16 32 96 -141 0
38 -41 0
-13 15 -16 31 -32 -38 51 -96 -141 0
-25 -49 -104 0
9 -25 -33 0
-10 -11 -12 -27 28 49 -97 -142 0
15 -30 -31 -41 0
-5 -8 22 23 24 35 0
-30 -31 -32 33 35 -38 -39 -40 0
1 2 -18 39 0
-13 -15 -16 -31 -32 -38 51 -96 -141 0
2 3 -17 -19 39 0
11 12 -25 -26 -33 0
1 2 3 -20 39 0
1 2 -18 -40 0
-5 6 7 8 -21 22 23 24 36 0
-14 -15 29 31 -34 -36 -37 40 0
14 16 -31 33 35 -38 -39 -40 0
6 7 8 -21 -35 0
11 -25 -26 -27 -33 0
-15 -31 89 -134 0
10 -11 -25 27 -52 -104 0
-21 -22 -23 -24 -35 0
38 96 -141 0
39 40 0
-13 -14 -15 16 -30 -31 32 33 -34 35 -36 -37 -38 -39 41 0
-5 6 7 -8 -21 22 23 -24 36 0
8 -21 -22 -23 -35 0
-35 -37 40 0
-14 -16 29 31 32 -34 -36 -37 40 0
-30 -94 -139 0
-13 -14 30 -34 -36 -37 40 0
-5 8 -21 22 24 43 103 0
-5 6 -8 -21 22 -24 43 -100 -145 0
14 -30 33 35 -38 -39 -40 0
2 -17 -19 -20 37 -40 0
39 -41 0
10 11 -25 -28 -33 0
40 -54 55 56 58 60 -105 0
-5 -7 -21 22 23 103 0
-1 2 -3 -4 -17 18 -19 -20 37 0
-1 -3 18 19 -39 0
9 10 11 12 -33 0
-1 2 3 4 -17 18 19 20 37 0
-1 -3 -4 18 20 -39 0
-40 47 -55 103 104 -105 0
-1 2 3 -4 -17 18 19 -20 37 0
-11 -12 26 -27 28 49 57 58 60 104 0
-15 -16 29 30 32 -34 -36 -37 40 0
14 -15 -16 29 30 -31 -32 33 -34 35 -36 -37 -38 -39 41 0
9 12 -26 -52 97 -142 0
-5 -6 -7 -8 -21 -22 -23 -24 36 0
1 2 -19 -20 37 -40 0
-9 -10 -11 27 33 0
-5 -6 -7 8 -21 -22 -23 24 36 0
-10 -11 25 27 33 0
-9 -10 11 -12 -25 -26 27 -28 34 0
-1 -2 3 -4 -17 -18 19 -20 37 0
-1 -2 -4 19 20 -39 0
-40 47 54 103 104 -105 0
-25 -26 -28 -52 -104 0
-25 -49 97 -142 0
2 3 4 -17 39 0
-14 -15 -16 29 32 33 -34 -36 -37 -38 40 0
9 10 11 12 25 26 27 28 34 0
-10 26 49 -97 -142 0
-33 -41 0
9 10 -11 27 -52 -104 0
10 11 26 27 49 50 -98 -143 0
5 -7 21 22 23 103 0
9 11 -26 -27 -52 97 -142 0
-10 11 -12 27 28 49 -97 -142 0
9 -10 11 12 25 -26 27 28 34 0
10 -26 98 -143 0
-10 26 -34 0
9 12 -26 -27 -33 0
9 10 -28 -52 97 -142 0
9 -11 -26 27 -52 -104 0
11 -12 26 27 28 49 57 58 60 104 0
-10 26 49 57 58 60 104 0
2 -17 -19 -20 39 0
2 -17 -18 39 0
6 7 -8 -44 -103 0
4 -17 -18 -19 39 0
3 -17 -18 -19 39 0
-5 -6 7 8 -21 -22 23 24 36 0
-14 -15 16 29 -30 -31 32 33 -34 35 -36 -37 -38 -39 41 0
5 6 7 8 21 22 23 24 36 0
-5 -6 -7 -8 24 35 0
14 -31 -32 33 35 -38 -39 -40 0
16 -30 -31 33 35 -38 -39 -40 0
6 7 -21 -23 -35 0
-9 -10 -12 27 28 33 0
-9 -10 11 12 -25 -26 27 28 34 0
-25 -26 -28 -52 97 -142 0
15 -30 -31 33 35 -38 -39 -40 0
5 8 21 22 24 43 103 0
5 -6 7 8 21 -22 23 24 36 0
5 6 -7 8 21 22 -23 24 36 0
10 11 -25 -27 -33 0
2 4 -17 -19 37 -40 0
2 3 4 -17 37 -40 0
-35 -41 0
-13 -15 -16 30 32 -34 35 -36 -37 -38 40 0
-6 21 22 35 0
11 -25 -26 -27 -52 -104 0
12 -25 -26 -52 -104 0
-22 -23 -24 -44 -103 0
-5 -6 8 -21 24 43 103 0
7 -8 -22 -44 -103 0
10 11 12 -25 -33 0
6 7 -43 -44 -103 0
6 7 -24 -44 -103 0
5 -6 -7 8 21 -22 -23 24 36 0
10 -25 -26 -33 0
44 103 0
-6 -8 21 23 24 35 0
5 -6 -7 -8 21 -22 -23 -24 36 0
10 -25 -27 -28 -33 0
40 59 60 -103 -105 0
5 7 8 -22 -35 0
-40 -46 -56 -59 104 -105 0
-40 -46 54 103 104 -105 0
-40 -46 -60 -105 0
-58 -104 0
-60 -104 0
9 10 11 -27 -52 97 -142 0
-57 -104 0
-40 47 -60 -105 0
40 -104 -105 0
-40 -46 -58 -59 -105 0
-1 -2 3 4 -17 -18 19 20 37 0
-1 -2 -3 -4 20 -39 0
15 16 29 31 32 -38 51 -96 -141 0
-13 14 -15 16 30 -31 32 33 -34 35 -36 -37 -38 -39 41 0
-1 -2 -3 4 -17 -18 -19 20 37 0
-3 17 18 19 -39 0
6 -22 -44 -103 0
-31 -93 -138 0
9 10 12 -52 97 -142 0
9 10 -11 27 -52 97 -142 0
29 -38 91 -136 0
-40 47 -58 103 -105 0
-8 -22 -23 -44 -103 0
-15 16 29 -31 32 -38 51 -96 -141 0
-40 47 -55 -59 104 -105 0
9 10 -26 -33 0
6 -21 -22 -35 0
14 -30 -41 0
-34 -36 -37 38 40 0
15 -31 -89 -134 0
-11 -12 26 -27 28 49 -97 -142 0
-7 -8 21 22 24 35 0
-9 10 11 -12 -25 26 27 -28 34 0
-9 -12 26 27 28 33 0
5 -21 -44 -103 0
5 6 -23 -24 -35 0
-40 47 -56 -59 104 -105 0
-40 47 -58 -59 -105 0
-41 53 -105 0
41 -53 -105 0
-3 -61 -106 0
3 61 -106 0
-19 -62 -107 0
19 62 -107 0
-5 -63 -108 0
5 63 -108 0
-21 -64 -109 0
21 64 -109 0
-7 -65 -110 0
7 65 -110 0
-23 -66 -111 0
23 66 -111 0
-9 -67 -112 0
9 67 -112 0
-25 -68 -113 0
25 68 -113 0
-11 -69 -114 0
11 69 -114 0
-27 -70 -115 0
-40 -46 54 -59 104 -105 0
27 70 -115 0
-12 -71 -116 0
12 71 -116 0
-28 -72 -117 0
28 72 -117 0
-13 -73 -118 0
13 73 -118 0
-29 -74 -119 0
29 74 -119 0
-14 -75 -120 0
14 75 -120 0
-30 -76 -121 0
30 76 -121 0
-16 -77 -122 0
16 77 -122 0
-32 -78 -123 0
-40 -46 -55 103 104 -105 0
32 78 -123 0
-42 -79 -124 0
42 79 -124 0
-2 -80 -125 0
2 80 -125 0
-18 -81 -126 0
18 81 -126 0
1 17 82 -127 0
-4 17 18 19 20 -39 0
1 2 3 -4 17 18 19 -20 37 0
-4 -83 -128 0
4 83 -128 0
-20 -84 -129 0
20 84 -129 0
-3 -85 -130 0
-40 -46 -56 103 104 -105 0
3 85 -130 0
-19 -86 -131 0
19 86 -131 0
-1 -87 -132 0
1 87 -132 0
-17 -88 -133 0
17 88 -133 0
15 31 89 -134 0
7 -21 -22 -23 -35 0
14 15 -31 -41 0
-51 -90 -135 0
51 90 -135 0
-13 -14 -16 31 32 -34 -36 -37 -38 40 0
40 46 -47 -105 0
-13 -15 16 -31 32 -38 51 -96 -141 0
-48 -92 -137 0
48 92 -137 0
-14 15 -16 29 -30 31 -32 33 -34 35 -36 -37 -38 -39 41 0
-10 49 52 57 58 60 104 0
-14 30 94 -139 0
9 -11 -26 27 -52 97 -142 0
-45 -95 -140 0
45 95 -140 0
15 16 -30 -32 -41 0
13 -29 96 -141 0
15 -31 96 -141 0
-15 31 93 -138 0
-9 25 -97 -142 0
9 10 12 -27 -33 0
-49 98 -143 0
-99 -103 -144 0
99 103 -144 0
5 6 8 -23 -35 0
5 6 -7 -8 21 22 -23 -24 36 0
8 -24 100 -145 0
46 -47 -101 102 105 106 107 108 109 110 111 112 113 114 115 116 117 118 119 120 121 122 123 124 125 126 127 128 129 130 131 132 133 134 135 136 137 138 139 140 141 142 143 144 145 0
-50 98 -143 0
-46 47 101 -102 105 106 107 108 109 110 111 112 113 114 115 116 117 118 119 120 121 122 123 124 125 126 127 128 129 130 131 132 133 134 135 136 137 138 139 140 141 142 143 144 145 0
-46 -47 -101 -102 105 106 107 108 109 110 111 112 113 114 115 116 117 118 119 120 121 122 123 124 125 126 127 128 129 130 131 132 133 134 135 136 137 138 139 140 141 142 143 144 145 0
-43 100 -145 0
-51 96 -141 0
46 47 101 102 105 106 107 108 109 110 111 112 113 114 115 116 117 118 119 120 121 122 123 124 125 126 127 128 129 130 131 132 133 134 135 136 137 138 139 140 141 142 143 144 145 0
